11
0 692 926 967 796 603 1178 1211 903 193 85
692 0 236 277 747 472 625 646 234 503 760
926 236 0 41 834 601 483 493 158 738 995
967 277 41 0 858 632 469 476 174 780 1036
796 747 834 858 0 288 691 728 944 751 877
603 472 601 632 288 0 627 663 687 507 688
1178 625 483 469 691 627 0 37 640 1026 1261
1211 646 493 476 728 663 37 0 649 1057 1293
903 234 158 174 944 687 640 649 0 711 963
193 503 738 780 751 507 1026 1057 711 0 256
85 760 995 1036 877 688 1261 1293 963 256 0
